20	5
0	6	6	2	3	8	1	4
1	0
2	2	11	16
3	1	7
4	1	5
5	1	14
6	3	18	19	10
7	2	9	13
8	1	13
9	2	20	15
10	1	7
11	1	21
12	1	21
13	1	21
14	1	21
15	1	21
16	1	21
17	1	21
18	1	21
19	1	21
20	1	21
21	0
0	0	0	0	0	0	0
1	5	2	4	5	2	5
2	4	3	0	1	2	2
3	7	5	3	0	3	1
4	4	5	1	2	3	0
5	9	0	0	3	0	1
6	2	1	5	3	2	4
7	10	2	5	0	0	0
8	6	0	4	3	1	3
9	2	3	4	1	1	3
10	1	4	0	0	4	1
11	5	5	3	3	2	3
12	2	0	4	5	4	0
13	5	4	1	0	0	1
14	8	4	3	3	1	2
15	8	2	0	3	2	4
16	1	5	0	5	3	3
17	5	3	4	0	1	4
18	3	0	0	0	4	0
19	5	2	2	0	2	2
20	8	2	3	2	5	0
21	0	0	0	0	0	0
5	5	5	5	5
